\* Hard_Drive_Production *\
Minimize
OBJ: 25.4 x1 + 23.6 x2 + 21.8 x3 + 20 x4
Subject To
_C1: x1 >= 41000
_C2: x1 + x2 >= 121000
_C3: x1 + x2 + x3 >= 186000
_C4: x1 + x2 + x3 + x4 >= 347000
Bounds
 x1 <= 109000
 x2 <= 109000
 x3 <= 109000
 x4 <= 109000
End
